
Gurobi 12.0.2 (win64) logging started Thu Jun  5 16:49:11 2025

Set parameter LogFile to value "C:\Ioana\_uni\honours\slp\algorithm\Main_files\results\paracetamol_final_i_hope\Task_004_Sample001_irr_gurobi.log"
Gurobi Optimizer version 12.0.2 build v12.0.2rc0 (win64 - Windows 11.0 (26100.2))

CPU model: Intel(R) Core(TM) Ultra 5 125H, instruction set [SSE2|AVX|AVX2]
Thread count: 14 physical cores, 18 logical processors, using up to 18 threads

Non-default parameters:
TimeLimit  2200

Optimize a model with 47236 rows, 34517 columns and 146727 nonzeros
Model fingerprint: 0xa8fed38d
Variable types: 17268 continuous, 17249 integer (17249 binary)
Coefficient statistics:
  Matrix range     [1e-04, 8e+04]
  Objective range  [4e-04, 9e-01]
  Bounds range     [1e+00, 1e+03]
  RHS range        [1e+00, 1e+00]
Presolve removed 30813 rows and 21539 columns
Presolve time: 0.31s
Presolved: 16423 rows, 12978 columns, 54736 nonzeros
Variable types: 6426 continuous, 6552 integer (6552 binary)
Found heuristic solution: objective 11.5434016

Root relaxation: objective 9.524866e-01, 2503 iterations, 0.20 seconds (0.50 work units)

    Nodes    |    Current Node    |     Objective Bounds      |     Work
 Expl Unexpl |  Obj  Depth IntInf | Incumbent    BestBd   Gap | It/Node Time

     0     0    0.95249    0    2   11.54340    0.95249  91.7%     -    0s
H    0     0                       1.8337413    0.95249  48.1%     -    0s
H    0     0                       1.0980398    0.95249  13.3%     -    0s
     0     0    0.95249    0    2    1.09804    0.95249  13.3%     -    0s

Explored 1 nodes (2503 simplex iterations) in 0.61 seconds (0.98 work units)
Thread count was 18 (of 18 available processors)

Solution count 3: 1.09804 1.83374 11.5434 

Optimal solution found (tolerance 1.00e-04)
Best objective 1.098039770571e+00, best bound 1.098039770571e+00, gap 0.0000%
